certificates/rado_a14_c264_N28.drat
-26 -28 0
d -26 -19 -28 0
19 -10 20 0
20 26 0
-19 26 0
-28 0
26 0
-19 -20 0
-20 0
4 0
12 0
19 0
-17 0
-21 0
-2 0
-6 0
-10 0
-24 0
-14 0
0
